1947.32 0
0 93 89 95 98 94 88 91 96 17 0
0 51 80 76 63 43 35 45 59 53 0
0 27 13 83 85 81 82 86 84 87 50 66 65 61 0
0 19 70 72 71 69 77 78 79 57 55 52 0
0 12 15 21 25 0
0 7 100 6 8 9 2 1 10 5 3 4 16 0
0 22 14 73 74 75 24 0
0 62 56 48 47 36 31 33 40 39 41 28 30 67 58 44 29 60 64 0
0 68 32 46 37 34 38 42 54 49 0
0 20 18 92 90 23 0
0 26 99 97 11 0
